(declare-const a Real)
(declare-const b Real)
(declare-const c Real)
(assert (= (+ a b c) 3))
(assert (> a 0))
(assert (> b 0))
(assert (> c 0))
(assert (not (<= (+ (/ 3 5) (* (pow (* (pow (* (pow (+ (pow a 2) (pow (+ b c) 2)) -1) (+ b c (* -1 a))) (+ b c (* -1 a))) (pow (* (pow (+ (pow c 2) (pow (+ a b) 2)) -1) (+ a b (* -1 c))) (+ a b (* -1 c))) (pow (+ a c (* -1 b)) (* 2 (pow (+ (pow b 2) (pow (+ a c) 2)) -1)))) (pow (+ (pow (+ (pow b 2) (pow (+ a c) 2)) -1) (* 2 b)) -1)) (+ (* -1 (pow (+ (pow b 2) (pow (+ a c) 2)) -1)) (* -2 b)))) 0)))
(check-sat)
(get-model)
(exit)